p tdp 20 144
1 2
1 3
1 4
1 5
1 7
1 8
1 9
1 10
1 13
1 14
1 15
1 16
1 17
1 18
1 20
2 3
2 5
2 7
2 8
2 9
2 10
2 12
2 13
2 14
2 15
2 17
2 18
2 19
3 5
3 6
3 7
3 8
3 9
3 10
3 11
3 12
3 13
3 14
3 15
3 16
3 17
3 18
3 19
3 20
4 5
4 7
4 11
4 12
4 13
4 14
4 15
4 17
4 20
5 6
5 8
5 9
5 10
5 11
5 12
5 13
5 14
5 17
5 18
5 19
5 20
6 8
6 10
6 11
6 14
6 15
6 16
6 17
6 18
6 19
7 8
7 9
7 10
7 11
7 12
7 13
7 14
7 15
7 16
7 17
8 9
8 10
8 12
8 13
8 14
8 15
8 16
9 10
9 11
9 13
9 15
9 16
9 18
9 19
9 20
10 11
10 12
10 15
10 16
10 17
10 18
10 19
10 20
11 12
11 13
11 14
11 15
11 16
11 18
11 20
12 13
12 14
12 15
12 16
12 17
12 18
12 20
13 14
13 16
13 17
13 18
13 19
13 20
14 15
14 16
14 17
14 18
14 19
14 20
15 16
15 17
15 20
16 17
16 19
17 18
17 19
17 20
18 19
18 20
19 20
